benchmarks_vrp/CMT4/tsp_classic/CMT4_4.vrp
NAME: CMT4_4
TYPE: CVRP
COMMENT: 1028.42 - Cluster Nr.4
DIMENSION: 13
CAPACITY: 200
EDGE_WEIGHT_TYPE: EUC_2D
NODE_COORD_TYPE: TWOD_COORDS
NODE_COORD_SECTION: 
11 20 40
5 13 52
6 14 37
9 35 35
12 6 38
13 21 47
3 8 52
1 7 38
7 20 50
10 15 47
4 10 43
8 12 42
2 2 48
DEPOT_SECTION: 
9
-1
DEMAND_SECTION: 
1 28
7 5
11 12
13 15
9 0
8 21
5 36
4 9
12 16
6 11
10 16
2 1
3 10
EOF
