benchmarks_vrp/CMT4/tsp_classic/CMT4_4.tour
NAME: CMT4_4 solution
TYPE: TOUR
TOUR_SECTION:
9 11 6 8 4 12 1 2 3 5 10 7 13 -1
-1
EOF